p cnf 779 2283
r 0.5 1 2 3 4 5 6 7 8 9 10 11 12 13 14 15 16 17 18 19 20 21 22 23 24 25 0
e 26 27 28 29 30 31 32 33 34 35 36 37 38 39 40 41 42 43 44 45 46 47 48 49 50 51 52 53 54 55 56 57 58 59 60 61 62 63 64 65 66 67 68 69 70 71 72 73 74 75 76 77 78 79 80 81 82 83 84 85 86 87 88 89 90 91 92 93 94 95 96 97 98 99 100 101 102 103 104 105 106 107 108 109 110 111 112 113 114 115 116 117 118 119 120 121 122 123 124 125 126 127 128 129 130 131 132 133 134 135 136 137 138 139 140 141 142 143 144 145 146 147 148 149 150 151 152 153 154 155 156 157 158 159 160 161 162 163 164 165 166 167 168 169 170 171 172 173 174 175 176 177 178 179 180 181 182 183 184 185 186 187 188 189 190 191 192 193 194 195 196 197 198 199 200 201 202 203 204 205 206 207 208 209 210 211 212 213 214 215 216 217 218 219 220 221 222 223 224 225 226 227 228 229 230 231 232 233 234 235 236 237 238 239 240 241 242 243 244 245 246 247 248 249 250 251 252 253 254 255 256 257 258 259 260 261 262 263 264 265 266 267 268 269 270 271 272 273 274 275 276 277 278 279 280 281 282 283 284 285 286 287 288 289 290 291 292 293 294 295 296 297 298 299 300 301 302 303 304 305 306 307 308 309 310 311 312 313 314 315 316 317 318 319 320 321 322 323 324 325 326 327 328 329 330 331 332 333 334 335 336 337 338 339 340 341 342 343 344 345 346 347 348 349 350 351 352 353 354 355 356 357 358 359 360 361 362 363 364 365 366 367 368 369 370 371 372 373 374 375 376 377 378 379 380 381 382 383 384 385 386 387 388 389 390 391 392 393 394 395 396 397 398 399 400 401 402 403 404 405 406 407 408 409 410 411 412 413 414 415 416 417 418 419 420 421 422 423 424 425 426 427 428 429 430 431 432 433 434 435 436 437 438 439 440 441 442 443 444 445 446 447 448 449 450 451 452 453 454 455 456 457 458 459 460 461 462 463 464 465 466 467 468 469 470 471 472 473 474 475 476 477 478 479 480 481 482 483 484 485 486 487 488 489 490 491 492 493 494 495 496 497 498 499 500 501 502 503 504 505 506 507 508 509 510 511 512 513 514 515 516 517 518 519 520 521 522 523 524 525 526 527 528 529 530 531 532 533 534 535 536 537 538 539 540 541 542 543 544 545 546 547 548 549 550 551 552 553 554 555 556 557 558 559 560 561 562 563 564 565 566 567 568 569 570 571 572 573 574 575 576 577 578 579 580 581 582 583 584 585 586 587 588 589 590 591 592 593 594 595 596 597 598 599 600 601 602 603 604 605 606 607 608 609 610 611 612 613 614 615 616 617 618 619 620 621 622 623 624 625 626 627 628 629 630 631 632 633 634 635 636 637 638 639 640 641 642 643 644 645 646 647 648 649 650 651 652 653 654 655 656 657 658 659 660 661 662 663 664 665 666 667 668 669 670 671 672 673 674 675 676 677 678 679 680 681 682 683 684 685 686 687 688 689 690 691 692 693 694 695 696 697 698 699 700 701 702 703 704 705 706 707 708 709 710 711 712 713 714 715 716 717 718 719 720 721 722 723 724 725 726 727 728 729 730 731 732 733 734 735 736 737 738 739 740 741 742 743 744 745 746 747 748 749 750 751 752 753 754 755 756 757 758 759 760 761 762 763 764 765 766 767 768 769 770 771 772 773 774 775 776 777 778 779 0
-779 -26 1 0
-778 -27 2 0
-777 -28 3 0
-776 -29 4 0
-775 -30 5 0
-774 -31 6 0
-773 -32 7 0
-772 -33 8 0
-771 -34 9 0
-770 -35 10 0
-769 -36 11 0
-768 -37 12 0
-767 -38 13 0
-766 -39 14 0
-765 -40 15 0
-764 -41 16 0
-763 -42 17 0
-762 -43 18 0
-761 -44 19 0
-760 -45 20 0
-759 -46 21 0
-758 -47 22 0
-757 -48 23 0
-756 -49 24 0
-755 -50 25 0
-754 1 0
-754 -26 0
-753 26 0
-753 -1 0
-752 2 0
-752 -27 0
-751 27 0
-751 -2 0
-750 3 0
-750 -28 0
-749 28 0
-749 -3 0
-748 4 0
-748 -29 0
-747 29 0
-747 -4 0
-746 5 0
-746 -30 0
-745 30 0
-745 -5 0
-744 6 0
-744 -31 0
-743 31 0
-743 -6 0
-742 7 0
-742 -32 0
-741 32 0
-741 -7 0
-740 8 0
-740 -33 0
-739 33 0
-739 -8 0
-738 9 0
-738 -34 0
-737 34 0
-737 -9 0
-736 10 0
-736 -35 0
-735 35 0
-735 -10 0
-734 11 0
-734 -36 0
-733 36 0
-733 -11 0
-732 12 0
-732 -37 0
-731 37 0
-731 -12 0
-730 13 0
-730 -38 0
-729 38 0
-729 -13 0
-728 14 0
-728 -39 0
-727 39 0
-727 -14 0
-726 15 0
-726 -40 0
-725 40 0
-725 -15 0
-724 16 0
-724 -41 0
-723 41 0
-723 -16 0
-722 17 0
-722 -42 0
-721 42 0
-721 -17 0
-720 18 0
-720 -43 0
-719 43 0
-719 -18 0
-718 19 0
-718 -44 0
-717 44 0
-717 -19 0
-716 20 0
-716 -45 0
-715 45 0
-715 -20 0
-714 21 0
-714 -46 0
-713 46 0
-713 -21 0
-712 22 0
-712 -47 0
-711 47 0
-711 -22 0
-710 23 0
-710 -48 0
-709 48 0
-709 -23 0
-708 24 0
-708 -49 0
-707 49 0
-707 -24 0
-706 25 0
-706 -50 0
-705 50 0
-705 -25 0
-704 754 753 752 751 750 749 748 747 746 745 744 743 742 741 740 739 738 737 736 735 734 733 732 731 730 729 728 727 726 725 724 723 722 721 720 719 718 717 716 715 714 713 712 711 710 709 708 707 706 705 0
-703 15 0
-703 21 0
-703 20 0
-703 18 0
-703 -14 0
-702 3 0
-702 21 0
-702 2 0
-702 -14 0
-701 12 0
-701 25 0
-701 24 0
-701 3 0
-701 -14 0
-700 22 0
-700 5 0
-700 8 0
-700 11 0
-700 -14 0
-699 16 0
-699 23 0
-699 21 0
-699 10 0
-699 -14 0
-698 25 0
-698 15 0
-698 16 0
-698 24 0
-698 -14 0
-697 7 0
-697 4 0
-697 15 0
-697 20 0
-697 -14 0
-696 11 0
-696 4 0
-696 5 0
-696 9 0
-696 -14 0
-695 12 0
-695 22 0
-695 25 0
-695 -14 0
-694 22 0
-694 9 0
-694 18 0
-694 -14 0
-693 19 0
-693 5 0
-693 21 0
-693 -20 0
-692 25 0
-692 7 0
-692 19 0
-692 18 0
-692 -20 0
-691 19 0
-691 5 0
-691 9 0
-691 1 0
-691 -20 0
-690 8 0
-690 15 0
-690 19 0
-690 18 0
-690 -20 0
-689 5 0
-689 17 0
-689 11 0
-689 7 0
-689 -20 0
-688 6 0
-688 5 0
-688 13 0
-688 14 0
-688 -20 0
-687 1 0
-687 14 0
-687 22 0
-687 10 0
-687 -20 0
-686 11 0
-686 15 0
-686 24 0
-686 18 0
-686 -20 0
-685 1 0
-685 13 0
-685 15 0
-685 9 0
-685 -20 0
-684 25 0
-684 1 0
-684 18 0
-684 4 0
-684 -20 0
-683 8 0
-683 15 0
-683 21 0
-683 14 0
-683 -24 0
-682 1 0
-682 3 0
-682 21 0
-682 2 0
-682 -24 0
-681 6 0
-681 7 0
-681 18 0
-681 -24 0
-680 11 0
-680 17 0
-680 9 0
-680 5 0
-680 -24 0
-679 10 0
-679 3 0
-679 11 0
-679 -24 0
-678 3 0
-678 13 0
-678 9 0
-678 8 0
-678 -24 0
-677 25 0
-677 20 0
-677 2 0
-677 13 0
-677 -24 0
-676 13 0
-676 11 0
-676 3 0
-676 -24 0
-675 10 0
-675 14 0
-675 3 0
-675 -24 0
-674 2 0
-674 19 0
-674 12 0
-674 9 0
-674 -24 0
-673 3 0
-673 2 0
-673 25 0
-673 19 0
-673 -1 0
-672 7 0
-672 4 0
-672 6 0
-672 25 0
-672 -1 0
-671 21 0
-671 24 0
-671 22 0
-671 17 0
-671 -1 0
-670 7 0
-670 5 0
-670 18 0
-670 15 0
-670 -1 0
-669 7 0
-669 23 0
-669 3 0
-669 10 0
-669 -1 0
-668 14 0
-668 7 0
-668 10 0
-668 -1 0
-667 7 0
-667 9 0
-667 23 0
-667 25 0
-667 -1 0
-666 5 0
-666 11 0
-666 20 0
-666 2 0
-666 -1 0
-665 25 0
-665 11 0
-665 24 0
-665 12 0
-665 -1 0
-664 15 0
-664 8 0
-664 10 0
-664 7 0
-664 -1 0
-663 2 0
-663 17 0
-663 10 0
-663 25 0
-663 -4 0
-662 5 0
-662 24 0
-662 22 0
-662 9 0
-662 -4 0
-661 9 0
-661 1 0
-661 22 0
-661 -4 0
-660 3 0
-660 21 0
-660 22 0
-660 6 0
-660 -4 0
-659 9 0
-659 10 0
-659 14 0
-659 23 0
-659 -4 0
-658 16 0
-658 20 0
-658 12 0
-658 15 0
-658 -4 0
-657 10 0
-657 19 0
-657 21 0
-657 23 0
-657 -4 0
-656 13 0
-656 7 0
-656 2 0
-656 8 0
-656 -4 0
-655 17 0
-655 12 0
-655 9 0
-655 20 0
-655 -4 0
-654 25 0
-654 20 0
-654 11 0
-654 10 0
-654 -4 0
-653 19 0
-653 4 0
-653 25 0
-653 16 0
-653 -12 0
-652 25 0
-652 13 0
-652 17 0
-652 24 0
-652 -12 0
-651 13 0
-651 23 0
-651 25 0
-651 21 0
-651 -12 0
-650 11 0
-650 8 0
-650 17 0
-650 22 0
-650 -12 0
-649 24 0
-649 17 0
-649 14 0
-649 19 0
-649 -12 0
-648 10 0
-648 8 0
-648 13 0
-648 1 0
-648 -12 0
-647 16 0
-647 25 0
-647 13 0
-647 -12 0
-646 24 0
-646 8 0
-646 1 0
-646 9 0
-646 -12 0
-645 21 0
-645 11 0
-645 25 0
-645 17 0
-645 -12 0
-644 15 0
-644 25 0
-644 22 0
-644 -12 0
-643 25 0
-643 3 0
-643 1 0
-643 -22 0
-642 3 0
-642 2 0
-642 12 0
-642 7 0
-642 -22 0
-641 17 0
-641 8 0
-641 25 0
-641 6 0
-641 -22 0
-640 5 0
-640 23 0
-640 15 0
-640 1 0
-640 -22 0
-639 5 0
-639 24 0
-639 1 0
-639 13 0
-639 -22 0
-638 7 0
-638 11 0
-638 15 0
-638 17 0
-638 -22 0
-637 14 0
-637 7 0
-637 11 0
-637 -22 0
-636 13 0
-636 21 0
-636 14 0
-636 5 0
-636 -22 0
-635 6 0
-635 12 0
-635 10 0
-635 23 0
-635 -22 0
-634 9 0
-634 18 0
-634 1 0
-634 5 0
-634 -22 0
-633 3 0
-633 21 0
-633 19 0
-633 8 0
-633 -16 0
-632 4 0
-632 7 0
-632 19 0
-632 -16 0
-631 4 0
-631 25 0
-631 10 0
-631 15 0
-631 -16 0
-630 12 0
-630 11 0
-630 5 0
-630 17 0
-630 -16 0
-629 22 0
-629 18 0
-629 13 0
-629 6 0
-629 -16 0
-628 5 0
-628 3 0
-628 7 0
-628 11 0
-628 -16 0
-627 4 0
-627 12 0
-627 21 0
-627 18 0
-627 -16 0
-626 25 0
-626 13 0
-626 12 0
-626 6 0
-626 -16 0
-625 22 0
-625 5 0
-625 7 0
-625 6 0
-625 -16 0
-624 8 0
-624 24 0
-624 15 0
-624 -16 0
-623 3 0
-623 6 0
-623 16 0
-623 23 0
-623 -19 0
-622 18 0
-622 22 0
-622 15 0
-622 3 0
-622 -19 0
-621 4 0
-621 14 0
-621 16 0
-621 -19 0
-620 17 0
-620 20 0
-620 11 0
-620 -19 0
-619 23 0
-619 10 0
-619 9 0
-619 3 0
-619 -19 0
-618 10 0
-618 5 0
-618 16 0
-618 21 0
-618 -19 0
-617 2 0
-617 20 0
-617 25 0
-617 23 0
-617 -19 0
-616 12 0
-616 4 0
-616 25 0
-616 20 0
-616 -19 0
-615 15 0
-615 3 0
-615 6 0
-615 1 0
-615 -19 0
-614 24 0
-614 16 0
-614 14 0
-614 18 0
-614 -19 0
-613 16 0
-613 25 0
-613 14 0
-613 -23 0
-612 3 0
-612 15 0
-612 21 0
-612 7 0
-612 -23 0
-611 17 0
-611 21 0
-611 18 0
-611 10 0
-611 -23 0
-610 1 0
-610 5 0
-610 20 0
-610 19 0
-610 -23 0
-609 1 0
-609 11 0
-609 13 0
-609 18 0
-609 -23 0
-608 21 0
-608 4 0
-608 6 0
-608 22 0
-608 -23 0
-607 4 0
-607 3 0
-607 10 0
-607 11 0
-607 -23 0
-606 22 0
-606 21 0
-606 24 0
-606 18 0
-606 -23 0
-605 21 0
-605 4 0
-605 25 0
-605 10 0
-605 -23 0
-604 10 0
-604 7 0
-604 20 0
-604 24 0
-604 -23 0
-603 3 0
-603 13 0
-603 12 0
-603 22 0
-603 -18 0
-602 1 0
-602 3 0
-602 7 0
-602 20 0
-602 -18 0
-601 12 0
-601 10 0
-601 2 0
-601 -18 0
-600 13 0
-600 6 0
-600 11 0
-600 -18 0
-599 20 0
-599 13 0
-599 8 0
-599 12 0
-599 -18 0
-598 16 0
-598 24 0
-598 4 0
-598 9 0
-598 -18 0
-597 11 0
-597 3 0
-597 4 0
-597 14 0
-597 -18 0
-596 6 0
-596 22 0
-596 24 0
-596 4 0
-596 -18 0
-595 10 0
-595 23 0
-595 12 0
-595 19 0
-595 -18 0
-594 6 0
-594 24 0
-594 3 0
-594 -18 0
-593 22 0
-593 14 0
-593 16 0
-593 17 0
-593 -25 0
-592 10 0
-592 18 0
-592 3 0
-592 23 0
-592 -25 0
-591 8 0
-591 4 0
-591 2 0
-591 15 0
-591 -25 0
-590 24 0
-590 10 0
-590 17 0
-590 -25 0
-589 1 0
-589 16 0
-589 8 0
-589 -25 0
-588 23 0
-588 7 0
-588 22 0
-588 3 0
-588 -25 0
-587 21 0
-587 7 0
-587 19 0
-587 2 0
-587 -25 0
-586 1 0
-586 2 0
-586 5 0
-586 6 0
-586 -25 0
-585 15 0
-585 11 0
-585 17 0
-585 -25 0
-584 13 0
-584 11 0
-584 3 0
-584 18 0
-584 -25 0
-583 19 0
-583 8 0
-583 21 0
-583 -6 0
-582 7 0
-582 4 0
-582 3 0
-582 21 0
-582 -6 0
-581 3 0
-581 16 0
-581 15 0
-581 1 0
-581 -6 0
-580 24 0
-580 2 0
-580 3 0
-580 16 0
-580 -6 0
-579 10 0
-579 7 0
-579 1 0
-579 11 0
-579 -6 0
-578 4 0
-578 5 0
-578 1 0
-578 -6 0
-577 24 0
-577 7 0
-577 19 0
-577 11 0
-577 -6 0
-576 14 0
-576 24 0
-576 20 0
-576 -6 0
-575 8 0
-575 5 0
-575 22 0
-575 25 0
-575 -6 0
-574 17 0
-574 1 0
-574 15 0
-574 8 0
-574 -6 0
-573 22 0
-573 17 0
-573 25 0
-573 4 0
-573 -9 0
-572 18 0
-572 15 0
-572 17 0
-572 24 0
-572 -9 0
-571 5 0
-571 6 0
-571 23 0
-571 2 0
-571 -9 0
-570 15 0
-570 6 0
-570 16 0
-570 17 0
-570 -9 0
-569 16 0
-569 8 0
-569 6 0
-569 23 0
-569 -9 0
-568 7 0
-568 10 0
-568 25 0
-568 19 0
-568 -9 0
-567 6 0
-567 2 0
-567 5 0
-567 23 0
-567 -9 0
-566 21 0
-566 10 0
-566 20 0
-566 12 0
-566 -9 0
-565 6 0
-565 25 0
-565 14 0
-565 16 0
-565 -9 0
-564 25 0
-564 12 0
-564 14 0
-564 -9 0
-563 21 0
-563 15 0
-563 1 0
-563 19 0
-563 -11 0
-562 8 0
-562 18 0
-562 13 0
-562 4 0
-562 -11 0
-561 3 0
-561 10 0
-561 19 0
-561 -11 0
-560 20 0
-560 16 0
-560 4 0
-560 17 0
-560 -11 0
-559 15 0
-559 1 0
-559 9 0
-559 2 0
-559 -11 0
-558 18 0
-558 1 0
-558 19 0
-558 17 0
-558 -11 0
-557 4 0
-557 7 0
-557 18 0
-557 25 0
-557 -11 0
-556 21 0
-556 18 0
-556 24 0
-556 20 0
-556 -11 0
-555 1 0
-555 12 0
-555 23 0
-555 3 0
-555 -11 0
-554 15 0
-554 18 0
-554 14 0
-554 8 0
-554 -11 0
-553 1 0
-553 3 0
-553 13 0
-553 4 0
-553 -8 0
-552 12 0
-552 24 0
-552 1 0
-552 14 0
-552 -8 0
-551 16 0
-551 15 0
-551 17 0
-551 7 0
-551 -8 0
-550 5 0
-550 12 0
-550 10 0
-550 24 0
-550 -8 0
-549 14 0
-549 20 0
-549 9 0
-549 -8 0
-548 25 0
-548 24 0
-548 11 0
-548 13 0
-548 -8 0
-547 6 0
-547 15 0
-547 21 0
-547 -8 0
-546 6 0
-546 19 0
-546 24 0
-546 23 0
-546 -8 0
-545 19 0
-545 10 0
-545 6 0
-545 -8 0
-544 25 0
-544 7 0
-544 2 0
-544 4 0
-544 -8 0
-543 11 0
-543 25 0
-543 24 0
-543 5 0
-543 -10 0
-542 1 0
-542 16 0
-542 13 0
-542 4 0
-542 -10 0
-541 3 0
-541 14 0
-541 9 0
-541 24 0
-541 -10 0
-540 16 0
-540 9 0
-540 2 0
-540 22 0
-540 -10 0
-539 8 0
-539 19 0
-539 11 0
-539 2 0
-539 -10 0
-538 15 0
-538 21 0
-538 24 0
-538 23 0
-538 -10 0
-537 25 0
-537 9 0
-537 1 0
-537 12 0
-537 -10 0
-536 2 0
-536 15 0
-536 21 0
-536 -10 0
-535 5 0
-535 22 0
-535 11 0
-535 1 0
-535 -10 0
-534 1 0
-534 11 0
-534 2 0
-534 -10 0
-533 1 0
-533 22 0
-533 6 0
-533 13 0
-533 -7 0
-532 6 0
-532 1 0
-532 22 0
-532 -7 0
-531 21 0
-531 20 0
-531 24 0
-531 -7 0
-530 9 0
-530 10 0
-530 3 0
-530 -7 0
-529 11 0
-529 25 0
-529 9 0
-529 -7 0
-528 4 0
-528 18 0
-528 2 0
-528 3 0
-528 -7 0
-527 8 0
-527 21 0
-527 6 0
-527 23 0
-527 -7 0
-526 15 0
-526 22 0
-526 8 0
-526 21 0
-526 -7 0
-525 15 0
-525 8 0
-525 6 0
-525 13 0
-525 -7 0
-524 13 0
-524 8 0
-524 14 0
-524 -7 0
-523 24 0
-523 8 0
-523 19 0
-523 2 0
-523 -15 0
-522 22 0
-522 4 0
-522 19 0
-522 2 0
-522 -15 0
-521 5 0
-521 13 0
-521 12 0
-521 7 0
-521 -15 0
-520 5 0
-520 7 0
-520 19 0
-520 -15 0
-519 16 0
-519 18 0
-519 11 0
-519 17 0
-519 -15 0
-518 23 0
-518 11 0
-518 13 0
-518 -15 0
-517 18 0
-517 9 0
-517 11 0
-517 19 0
-517 -15 0
-516 8 0
-516 23 0
-516 18 0
-516 12 0
-516 -15 0
-515 2 0
-515 4 0
-515 9 0
-515 13 0
-515 -15 0
-514 8 0
-514 19 0
-514 25 0
-514 -15 0
-513 21 0
-513 22 0
-513 17 0
-513 -2 0
-512 13 0
-512 11 0
-512 4 0
-512 18 0
-512 -2 0
-511 12 0
-511 4 0
-511 5 0
-511 8 0
-511 -2 0
-510 15 0
-510 3 0
-510 14 0
-510 19 0
-510 -2 0
-509 25 0
-509 18 0
-509 13 0
-509 3 0
-509 -2 0
-508 3 0
-508 12 0
-508 11 0
-508 20 0
-508 -2 0
-507 8 0
-507 15 0
-507 4 0
-507 19 0
-507 -2 0
-506 16 0
-506 11 0
-506 23 0
-506 9 0
-506 -2 0
-505 5 0
-505 22 0
-505 9 0
-505 6 0
-505 -2 0
-504 9 0
-504 13 0
-504 15 0
-504 7 0
-504 -2 0
-503 2 0
-503 19 0
-503 6 0
-503 11 0
-503 -3 0
-502 18 0
-502 13 0
-502 24 0
-502 5 0
-502 -3 0
-501 17 0
-501 7 0
-501 4 0
-501 11 0
-501 -3 0
-500 15 0
-500 14 0
-500 22 0
-500 6 0
-500 -3 0
-499 22 0
-499 10 0
-499 2 0
-499 1 0
-499 -3 0
-498 23 0
-498 15 0
-498 17 0
-498 -3 0
-497 22 0
-497 21 0
-497 17 0
-497 -3 0
-496 15 0
-496 23 0
-496 22 0
-496 -3 0
-495 18 0
-495 2 0
-495 4 0
-495 6 0
-495 -3 0
-494 11 0
-494 24 0
-494 6 0
-494 19 0
-494 -3 0
-493 19 0
-493 1 0
-493 20 0
-493 -5 0
-492 23 0
-492 8 0
-492 11 0
-492 14 0
-492 -5 0
-491 25 0
-491 6 0
-491 1 0
-491 17 0
-491 -5 0
-490 12 0
-490 8 0
-490 2 0
-490 9 0
-490 -5 0
-489 10 0
-489 15 0
-489 11 0
-489 18 0
-489 -5 0
-488 6 0
-488 13 0
-488 15 0
-488 21 0
-488 -5 0
-487 2 0
-487 21 0
-487 25 0
-487 18 0
-487 -5 0
-486 20 0
-486 13 0
-486 15 0
-486 18 0
-486 -5 0
-485 20 0
-485 17 0
-485 3 0
-485 6 0
-485 -5 0
-484 11 0
-484 18 0
-484 9 0
-484 20 0
-484 -5 0
-483 15 0
-483 13 0
-483 4 0
-483 18 0
-483 -17 0
-482 3 0
-482 24 0
-482 8 0
-482 -17 0
-481 25 0
-481 11 0
-481 24 0
-481 18 0
-481 -17 0
-480 16 0
-480 1 0
-480 22 0
-480 -17 0
-479 8 0
-479 2 0
-479 23 0
-479 -17 0
-478 6 0
-478 5 0
-478 7 0
-478 25 0
-478 -17 0
-477 7 0
-477 22 0
-477 20 0
-477 4 0
-477 -17 0
-476 5 0
-476 4 0
-476 1 0
-476 8 0
-476 -17 0
-475 4 0
-475 16 0
-475 24 0
-475 20 0
-475 -17 0
-474 4 0
-474 22 0
-474 7 0
-474 10 0
-474 -17 0
-473 3 0
-473 5 0
-473 1 0
-473 4 0
-473 -13 0
-472 14 0
-472 25 0
-472 6 0
-472 7 0
-472 -13 0
-471 12 0
-471 17 0
-471 16 0
-471 3 0
-471 -13 0
-470 15 0
-470 20 0
-470 22 0
-470 6 0
-470 -13 0
-469 19 0
-469 16 0
-469 10 0
-469 4 0
-469 -13 0
-468 9 0
-468 2 0
-468 5 0
-468 15 0
-468 -13 0
-467 4 0
-467 21 0
-467 5 0
-467 19 0
-467 -13 0
-466 16 0
-466 9 0
-466 20 0
-466 12 0
-466 -13 0
-465 18 0
-465 4 0
-465 23 0
-465 6 0
-465 -13 0
-464 10 0
-464 21 0
-464 4 0
-464 5 0
-464 -13 0
-463 25 0
-463 15 0
-463 10 0
-463 8 0
-463 -21 0
-462 14 0
-462 4 0
-462 13 0
-462 23 0
-462 -21 0
-461 3 0
-461 24 0
-461 14 0
-461 8 0
-461 -21 0
-460 20 0
-460 15 0
-460 5 0
-460 14 0
-460 -21 0
-459 11 0
-459 4 0
-459 23 0
-459 12 0
-459 -21 0
-458 19 0
-458 11 0
-458 7 0
-458 6 0
-458 -21 0
-457 20 0
-457 4 0
-457 12 0
-457 14 0
-457 -21 0
-456 18 0
-456 4 0
-456 13 0
-456 -21 0
-455 11 0
-455 9 0
-455 3 0
-455 25 0
-455 -21 0
-454 25 0
-454 10 0
-454 -21 0
-453 -19 0
-453 -7 0
-453 -22 0
-453 -4 0
-452 -2 0
-452 -17 0
-452 -18 0
-452 -12 0
-451 -4 0
-451 -15 0
-451 -3 0
-451 -5 0
-450 -19 0
-450 -13 0
-450 -24 0
-450 -8 0
-449 -14 0
-449 -6 0
-449 -5 0
-448 -9 0
-448 -5 0
-448 -10 0
-448 -20 0
-447 -17 0
-447 -6 0
-447 -8 0
-447 -18 0
-446 -1 0
-446 -19 0
-446 -13 0
-446 -9 0
-445 -14 0
-445 -4 0
-445 -7 0
-445 -5 0
-444 -4 0
-444 -20 0
-444 -19 0
-443 -14 0
-443 -13 0
-443 -16 0
-443 -19 0
-442 -13 0
-442 -25 0
-442 -14 0
-441 -21 0
-441 -17 0
-441 -14 0
-441 -6 0
-440 -3 0
-440 -7 0
-440 -8 0
-439 -4 0
-439 -12 0
-439 -1 0
-439 -23 0
-438 -8 0
-438 -20 0
-438 -17 0
-437 -19 0
-437 -10 0
-437 -9 0
-437 -11 0
-436 -17 0
-436 -8 0
-436 -21 0
-435 -9 0
-435 -22 0
-435 -16 0
-435 -11 0
-434 -15 0
-434 -19 0
-434 -11 0
-434 -2 0
-433 -16 0
-433 -8 0
-433 -19 0
-433 -24 0
-432 -23 0
-432 -14 0
-432 -2 0
-432 -8 0
-431 -19 0
-431 -21 0
-431 -13 0
-430 -20 0
-430 -13 0
-430 -11 0
-430 -25 0
-429 -10 0
-429 -4 0
-429 -14 0
-429 -9 0
-428 -2 0
-428 -21 0
-428 -9 0
-428 -18 0
-427 -19 0
-427 -3 0
-427 -21 0
-427 -1 0
-426 -12 0
-426 -9 0
-426 -17 0
-426 -6 0
-425 -12 0
-425 -16 0
-425 -10 0
-425 -11 0
-424 -16 0
-424 -9 0
-424 -4 0
-424 -8 0
-423 -6 0
-423 -12 0
-423 -11 0
-423 -8 0
-422 -12 0
-422 -1 0
-422 -5 0
-421 -23 0
-421 -1 0
-421 -6 0
-421 -22 0
-420 -12 0
-420 -14 0
-420 -10 0
-420 -9 0
-419 -17 0
-419 -8 0
-419 -10 0
-419 -1 0
-418 -12 0
-418 -8 0
-418 -7 0
-418 -25 0
-417 -17 0
-417 -23 0
-417 -14 0
-417 -4 0
-416 -17 0
-416 -16 0
-416 -25 0
-415 -11 0
-415 -9 0
-415 -4 0
-415 -3 0
-414 -15 0
-414 -16 0
-414 -4 0
-413 -25 0
-413 -16 0
-413 -18 0
-413 -10 0
-412 -16 0
-412 -20 0
-412 -22 0
-411 -15 0
-411 -17 0
-411 -18 0
-411 -21 0
-410 -6 0
-410 -4 0
-410 -18 0
-410 -23 0
-409 -9 0
-409 -6 0
-409 -8 0
-408 -5 0
-408 -11 0
-408 -20 0
-408 -9 0
-407 -24 0
-407 -12 0
-407 -18 0
-407 -3 0
-406 -11 0
-406 -1 0
-406 -14 0
-406 -24 0
-405 -9 0
-405 -6 0
-405 -3 0
-405 -17 0
-404 -10 0
-404 -20 0
-404 -4 0
-404 -23 0
-403 -13 0
-403 -10 0
-403 -18 0
-403 -6 0
-402 -5 0
-402 -3 0
-402 -13 0
-402 -23 0
-401 -18 0
-401 -11 0
-401 -21 0
-401 -19 0
-400 -1 0
-400 -24 0
-400 -5 0
-400 -22 0
-399 -23 0
-399 -22 0
-399 -1 0
-399 -13 0
-398 -6 0
-398 -12 0
-398 -20 0
-398 -24 0
-397 -15 0
-397 -5 0
-397 -21 0
-397 -23 0
-396 -13 0
-396 -4 0
-396 -3 0
-395 -3 0
-395 -22 0
-395 -25 0
-395 -10 0
-394 -1 0
-394 -23 0
-394 -8 0
-393 -14 0
-393 -4 0
-393 -21 0
-393 -22 0
-392 -22 0
-392 -17 0
-392 -6 0
-392 -8 0
-391 -22 0
-391 -7 0
-391 -9 0
-391 -15 0
-390 -13 0
-390 -10 0
-390 -3 0
-390 -15 0
-389 -8 0
-389 -5 0
-389 -4 0
-389 -9 0
-388 -14 0
-388 -21 0
-388 -9 0
-388 -13 0
-387 -16 0
-387 -21 0
-387 -11 0
-387 -25 0
-386 -25 0
-386 -2 0
-386 -20 0
-385 -13 0
-385 -14 0
-385 -7 0
-385 -22 0
-384 -14 0
-384 -22 0
-384 -5 0
-383 -21 0
-383 -6 0
-383 -20 0
-382 -12 0
-382 -13 0
-382 -2 0
-382 -3 0
-381 -2 0
-381 -14 0
-381 -18 0
-381 -17 0
-380 -20 0
-380 -21 0
-380 -3 0
-380 -23 0
-379 -13 0
-379 -25 0
-379 -3 0
-378 -40 -46 -45 -43 39 0
-377 -28 -46 -27 39 0
-376 -37 -50 -49 -28 39 0
-375 -47 -30 -33 -36 39 0
-374 -41 -48 -46 -35 39 0
-373 -50 -40 -41 -49 39 0
-372 -32 -29 -40 -45 39 0
-371 -36 -29 -30 -34 39 0
-370 -37 -47 -50 39 0
-369 -47 -34 -43 39 0
-368 -44 -30 -46 45 0
-367 -50 -32 -44 -43 45 0
-366 -44 -30 -34 -26 45 0
-365 -33 -40 -44 -43 45 0
-364 -30 -42 -36 -32 45 0
-363 -31 -30 -38 -39 45 0
-362 -26 -39 -47 -35 45 0
-361 -36 -40 -49 -43 45 0
-360 -26 -38 -40 -34 45 0
-359 -50 -26 -43 -29 45 0
-358 -33 -40 -46 -39 49 0
-357 -26 -28 -46 -27 49 0
-356 -31 -32 -43 49 0
-355 -36 -42 -34 -30 49 0
-354 -35 -28 -36 49 0
-353 -28 -38 -34 -33 49 0
-352 -50 -45 -27 -38 49 0
-351 -38 -36 -28 49 0
-350 -35 -39 -28 49 0
-349 -27 -44 -37 -34 49 0
-348 -28 -27 -50 -44 26 0
-347 -32 -29 -31 -50 26 0
-346 -46 -49 -47 -42 26 0
-345 -32 -30 -43 -40 26 0
-344 -32 -48 -28 -35 26 0
-343 -39 -32 -35 26 0
-342 -32 -34 -48 -50 26 0
-341 -30 -36 -45 -27 26 0
-340 -50 -36 -49 -37 26 0
-339 -40 -33 -35 -32 26 0
-338 -27 -42 -35 -50 29 0
-337 -30 -49 -47 -34 29 0
-336 -34 -26 -47 29 0
-335 -28 -46 -47 -31 29 0
-334 -34 -35 -39 -48 29 0
-333 -41 -45 -37 -40 29 0
-332 -35 -44 -46 -48 29 0
-331 -38 -32 -27 -33 29 0
-330 -42 -37 -34 -45 29 0
-329 -50 -45 -36 -35 29 0
-328 -44 -29 -50 -41 37 0
-327 -50 -38 -42 -49 37 0
-326 -38 -48 -50 -46 37 0
-325 -36 -33 -42 -47 37 0
-324 -49 -42 -39 -44 37 0
-323 -35 -33 -38 -26 37 0
-322 -41 -50 -38 37 0
-321 -49 -33 -26 -34 37 0
-320 -46 -36 -50 -42 37 0
-319 -40 -50 -47 37 0
-318 -50 -28 -26 47 0
-317 -28 -27 -37 -32 47 0
-316 -42 -33 -50 -31 47 0
-315 -30 -48 -40 -26 47 0
-314 -30 -49 -26 -38 47 0
-313 -32 -36 -40 -42 47 0
-312 -39 -32 -36 47 0
-311 -38 -46 -39 -30 47 0
-310 -31 -37 -35 -48 47 0
-309 -34 -43 -26 -30 47 0
-308 -28 -46 -44 -33 41 0
-307 -29 -32 -44 41 0
-306 -29 -50 -35 -40 41 0
-305 -37 -36 -30 -42 41 0
-304 -47 -43 -38 -31 41 0
-303 -30 -28 -32 -36 41 0
-302 -29 -37 -46 -43 41 0
-301 -50 -38 -37 -31 41 0
-300 -47 -30 -32 -31 41 0
-299 -33 -49 -40 41 0
-298 -28 -31 -41 -48 44 0
-297 -43 -47 -40 -28 44 0
-296 -29 -39 -41 44 0
-295 -42 -45 -36 44 0
-294 -48 -35 -34 -28 44 0
-293 -35 -30 -41 -46 44 0
-292 -27 -45 -50 -48 44 0
-291 -37 -29 -50 -45 44 0
-290 -40 -28 -31 -26 44 0
-289 -49 -41 -39 -43 44 0
-288 -41 -50 -39 48 0
-287 -28 -40 -46 -32 48 0
-286 -42 -46 -43 -35 48 0
-285 -26 -30 -45 -44 48 0
-284 -26 -36 -38 -43 48 0
-283 -46 -29 -31 -47 48 0
-282 -29 -28 -35 -36 48 0
-281 -47 -46 -49 -43 48 0
-280 -46 -29 -50 -35 48 0
-279 -35 -32 -45 -49 48 0
-278 -28 -38 -37 -47 43 0
-277 -26 -28 -32 -45 43 0
-276 -37 -35 -27 43 0
-275 -38 -31 -36 43 0
-274 -45 -38 -33 -37 43 0
-273 -41 -49 -29 -34 43 0
-272 -36 -28 -29 -39 43 0
-271 -31 -47 -49 -29 43 0
-270 -35 -48 -37 -44 43 0
-269 -31 -49 -28 43 0
-268 -47 -39 -41 -42 50 0
-267 -35 -43 -28 -48 50 0
-266 -33 -29 -27 -40 50 0
-265 -49 -35 -42 50 0
-264 -26 -41 -33 50 0
-263 -48 -32 -47 -28 50 0
-262 -46 -32 -44 -27 50 0
-261 -26 -27 -30 -31 50 0
-260 -40 -36 -42 50 0
-259 -38 -36 -28 -43 50 0
-258 -44 -33 -46 31 0
-257 -32 -29 -28 -46 31 0
-256 -28 -41 -40 -26 31 0
-255 -49 -27 -28 -41 31 0
-254 -35 -32 -26 -36 31 0
-253 -29 -30 -26 31 0
-252 -49 -32 -44 -36 31 0
-251 -39 -49 -45 31 0
-250 -33 -30 -47 -50 31 0
-249 -42 -26 -40 -33 31 0
-248 -47 -42 -50 -29 34 0
-247 -43 -40 -42 -49 34 0
-246 -30 -31 -48 -27 34 0
-245 -40 -31 -41 -42 34 0
-244 -41 -33 -31 -48 34 0
-243 -32 -35 -50 -44 34 0
-242 -31 -27 -30 -48 34 0
-241 -46 -35 -45 -37 34 0
-240 -31 -50 -39 -41 34 0
-239 -50 -37 -39 34 0
-238 -46 -40 -26 -44 36 0
-237 -33 -43 -38 -29 36 0
-236 -28 -35 -44 36 0
-235 -45 -41 -29 -42 36 0
-234 -40 -26 -34 -27 36 0
-233 -43 -26 -44 -42 36 0
-232 -29 -32 -43 -50 36 0
-231 -46 -43 -49 -45 36 0
-230 -26 -37 -48 -28 36 0
-229 -40 -43 -39 -33 36 0
-228 -26 -28 -38 -29 33 0
-227 -37 -49 -26 -39 33 0
-226 -41 -40 -42 -32 33 0
-225 -30 -37 -35 -49 33 0
-224 -39 -45 -34 33 0
-223 -50 -49 -36 -38 33 0
-222 -31 -40 -46 33 0
-221 -31 -44 -49 -48 33 0
-220 -44 -35 -31 33 0
-219 -50 -32 -27 -29 33 0
-218 -36 -50 -49 -30 35 0
-217 -26 -41 -38 -29 35 0
-216 -28 -39 -34 -49 35 0
-215 -41 -34 -27 -47 35 0
-214 -33 -44 -36 -27 35 0
-213 -40 -46 -49 -48 35 0
-212 -50 -34 -26 -37 35 0
-211 -27 -40 -46 35 0
-210 -30 -47 -36 -26 35 0
-209 -26 -36 -27 35 0
-208 -26 -47 -31 -38 32 0
-207 -31 -26 -47 32 0
-206 -46 -45 -49 32 0
-205 -34 -35 -28 32 0
-204 -36 -50 -34 32 0
-203 -29 -43 -27 -28 32 0
-202 -33 -46 -31 -48 32 0
-201 -40 -47 -33 -46 32 0
-200 -40 -33 -31 -38 32 0
-199 -38 -33 -39 32 0
-198 -49 -33 -44 -27 40 0
-197 -47 -29 -44 -27 40 0
-196 -30 -38 -37 -32 40 0
-195 -30 -32 -44 40 0
-194 -41 -43 -36 -42 40 0
-193 -48 -36 -38 40 0
-192 -43 -34 -36 -44 40 0
-191 -33 -48 -43 -37 40 0
-190 -27 -29 -34 -38 40 0
-189 -33 -44 -50 40 0
-188 -46 -47 -42 27 0
-187 -38 -36 -29 -43 27 0
-186 -37 -29 -30 -33 27 0
-185 -40 -28 -39 -44 27 0
-184 -50 -43 -38 -28 27 0
-183 -28 -37 -36 -45 27 0
-182 -33 -40 -29 -44 27 0
-181 -41 -36 -48 -34 27 0
-180 -30 -47 -34 -31 27 0
-179 -34 -38 -40 -32 27 0
-178 -27 -44 -31 -36 28 0
-177 -43 -38 -49 -30 28 0
-176 -42 -32 -29 -36 28 0
-175 -40 -39 -47 -31 28 0
-174 -47 -35 -27 -26 28 0
-173 -48 -40 -42 28 0
-172 -47 -46 -42 28 0
-171 -40 -48 -47 28 0
-170 -43 -27 -29 -31 28 0
-169 -36 -49 -31 -44 28 0
-168 -44 -26 -45 30 0
-167 -48 -33 -36 -39 30 0
-166 -50 -31 -26 -42 30 0
-165 -37 -33 -27 -34 30 0
-164 -35 -40 -36 -43 30 0
-163 -31 -38 -40 -46 30 0
-162 -27 -46 -50 -43 30 0
-161 -45 -38 -40 -43 30 0
-160 -45 -42 -28 -31 30 0
-159 -36 -43 -34 -45 30 0
-158 -40 -38 -29 -43 42 0
-157 -28 -49 -33 42 0
-156 -50 -36 -49 -43 42 0
-155 -41 -26 -47 42 0
-154 -33 -27 -48 42 0
-153 -31 -30 -32 -50 42 0
-152 -32 -47 -45 -29 42 0
-151 -30 -29 -26 -33 42 0
-150 -29 -41 -49 -45 42 0
-149 -29 -47 -32 -35 42 0
-148 -28 -30 -26 -29 38 0
-147 -39 -50 -31 -32 38 0
-146 -37 -42 -41 -28 38 0
-145 -40 -45 -47 -31 38 0
-144 -44 -41 -35 -29 38 0
-143 -34 -27 -30 -40 38 0
-142 -29 -46 -30 -44 38 0
-141 -41 -34 -45 -37 38 0
-140 -43 -29 -48 -31 38 0
-139 -35 -46 -29 -30 38 0
-138 -50 -40 -35 -33 46 0
-137 -39 -29 -38 -48 46 0
-136 -28 -49 -39 -33 46 0
-135 -45 -40 -30 -39 46 0
-134 -36 -29 -48 -37 46 0
-133 -44 -36 -32 -31 46 0
-132 -45 -29 -37 -39 46 0
-131 -43 -29 -38 46 0
-130 -36 -34 -28 -50 46 0
-129 -50 -35 46 0
-128 44 32 47 29 0
-127 27 42 43 37 0
-126 29 40 28 30 0
-125 44 38 49 33 0
-124 39 31 30 0
-123 34 30 35 45 0
-122 42 31 33 43 0
-121 26 44 38 34 0
-120 39 29 32 30 0
-119 29 45 44 0
-118 39 38 41 44 0
-117 38 50 39 0
-116 46 42 39 31 0
-115 28 32 33 0
-114 29 37 26 48 0
-113 33 45 42 0
-112 44 35 34 36 0
-111 42 33 46 0
-110 34 47 41 36 0
-109 40 44 36 27 0
-108 41 33 44 49 0
-107 48 39 27 33 0
-106 44 46 38 0
-105 45 38 36 50 0
-104 35 29 39 34 0
-103 27 46 34 43 0
-102 44 28 46 26 0
-101 37 34 42 31 0
-100 37 41 35 36 0
-99 41 34 29 33 0
-98 31 37 36 33 0
-97 37 26 30 0
-96 48 26 31 47 0
-95 37 39 35 34 0
-94 42 33 35 26 0
-93 37 33 32 50 0
-92 42 48 39 29 0
-91 42 41 50 0
-90 36 34 29 28 0
-89 40 41 29 0
-88 50 41 43 35 0
-87 41 45 47 0
-86 40 42 43 46 0
-85 31 29 43 48 0
-84 34 31 33 0
-83 30 36 45 34 0
-82 49 37 43 28 0
-81 36 26 39 49 0
-80 34 31 28 42 0
-79 35 45 29 48 0
-78 38 35 43 31 0
-77 30 28 38 48 0
-76 43 36 46 44 0
-75 26 49 30 47 0
-74 48 47 26 38 0
-73 31 37 45 49 0
-72 40 30 46 48 0
-71 38 29 28 0
-70 28 47 50 35 0
-69 26 48 33 0
-68 39 29 46 47 0
-67 47 42 31 33 0
-66 47 32 34 40 0
-65 38 35 28 40 0
-64 33 30 29 34 0
-63 39 46 34 38 0
-62 41 46 36 50 0
-61 50 27 45 0
-60 38 39 32 47 0
-59 39 47 30 0
-58 46 31 45 0
-57 37 38 27 28 0
-56 27 39 43 42 0
-55 45 46 28 48 0
-54 38 50 28 0
-53 378 0
-53 377 0
-53 376 0
-53 375 0
-53 374 0
-53 373 0
-53 372 0
-53 371 0
-53 370 0
-53 369 0
-53 368 0
-53 367 0
-53 366 0
-53 365 0
-53 364 0
-53 363 0
-53 362 0
-53 361 0
-53 360 0
-53 359 0
-53 358 0
-53 357 0
-53 356 0
-53 355 0
-53 354 0
-53 353 0
-53 352 0
-53 351 0
-53 350 0
-53 349 0
-53 348 0
-53 347 0
-53 346 0
-53 345 0
-53 344 0
-53 343 0
-53 342 0
-53 341 0
-53 340 0
-53 339 0
-53 338 0
-53 337 0
-53 336 0
-53 335 0
-53 334 0
-53 333 0
-53 332 0
-53 331 0
-53 330 0
-53 329 0
-53 328 0
-53 327 0
-53 326 0
-53 325 0
-53 324 0
-53 323 0
-53 322 0
-53 321 0
-53 320 0
-53 319 0
-53 318 0
-53 317 0
-53 316 0
-53 315 0
-53 314 0
-53 313 0
-53 312 0
-53 311 0
-53 310 0
-53 309 0
-53 308 0
-53 307 0
-53 306 0
-53 305 0
-53 304 0
-53 303 0
-53 302 0
-53 301 0
-53 300 0
-53 299 0
-53 298 0
-53 297 0
-53 296 0
-53 295 0
-53 294 0
-53 293 0
-53 292 0
-53 291 0
-53 290 0
-53 289 0
-53 288 0
-53 287 0
-53 286 0
-53 285 0
-53 284 0
-53 283 0
-53 282 0
-53 281 0
-53 280 0
-53 279 0
-53 278 0
-53 277 0
-53 276 0
-53 275 0
-53 274 0
-53 273 0
-53 272 0
-53 271 0
-53 270 0
-53 269 0
-53 268 0
-53 267 0
-53 266 0
-53 265 0
-53 264 0
-53 263 0
-53 262 0
-53 261 0
-53 260 0
-53 259 0
-53 258 0
-53 257 0
-53 256 0
-53 255 0
-53 254 0
-53 253 0
-53 252 0
-53 251 0
-53 250 0
-53 249 0
-53 248 0
-53 247 0
-53 246 0
-53 245 0
-53 244 0
-53 243 0
-53 242 0
-53 241 0
-53 240 0
-53 239 0
-53 238 0
-53 237 0
-53 236 0
-53 235 0
-53 234 0
-53 233 0
-53 232 0
-53 231 0
-53 230 0
-53 229 0
-53 228 0
-53 227 0
-53 226 0
-53 225 0
-53 224 0
-53 223 0
-53 222 0
-53 221 0
-53 220 0
-53 219 0
-53 218 0
-53 217 0
-53 216 0
-53 215 0
-53 214 0
-53 213 0
-53 212 0
-53 211 0
-53 210 0
-53 209 0
-53 208 0
-53 207 0
-53 206 0
-53 205 0
-53 204 0
-53 203 0
-53 202 0
-53 201 0
-53 200 0
-53 199 0
-53 198 0
-53 197 0
-53 196 0
-53 195 0
-53 194 0
-53 193 0
-53 192 0
-53 191 0
-53 190 0
-53 189 0
-53 188 0
-53 187 0
-53 186 0
-53 185 0
-53 184 0
-53 183 0
-53 182 0
-53 181 0
-53 180 0
-53 179 0
-53 178 0
-53 177 0
-53 176 0
-53 175 0
-53 174 0
-53 173 0
-53 172 0
-53 171 0
-53 170 0
-53 169 0
-53 168 0
-53 167 0
-53 166 0
-53 165 0
-53 164 0
-53 163 0
-53 162 0
-53 161 0
-53 160 0
-53 159 0
-53 158 0
-53 157 0
-53 156 0
-53 155 0
-53 154 0
-53 153 0
-53 152 0
-53 151 0
-53 150 0
-53 149 0
-53 148 0
-53 147 0
-53 146 0
-53 145 0
-53 144 0
-53 143 0
-53 142 0
-53 141 0
-53 140 0
-53 139 0
-53 138 0
-53 137 0
-53 136 0
-53 135 0
-53 134 0
-53 133 0
-53 132 0
-53 131 0
-53 130 0
-53 129 0
-53 128 0
-53 127 0
-53 126 0
-53 125 0
-53 124 0
-53 123 0
-53 122 0
-53 121 0
-53 120 0
-53 119 0
-53 118 0
-53 117 0
-53 116 0
-53 115 0
-53 114 0
-53 113 0
-53 112 0
-53 111 0
-53 110 0
-53 109 0
-53 108 0
-53 107 0
-53 106 0
-53 105 0
-53 104 0
-53 103 0
-53 102 0
-53 101 0
-53 100 0
-53 99 0
-53 98 0
-53 97 0
-53 96 0
-53 95 0
-53 94 0
-53 93 0
-53 92 0
-53 91 0
-53 90 0
-53 89 0
-53 88 0
-53 87 0
-53 86 0
-53 85 0
-53 84 0
-53 83 0
-53 82 0
-53 81 0
-53 80 0
-53 79 0
-53 78 0
-53 77 0
-53 76 0
-53 75 0
-53 74 0
-53 73 0
-53 72 0
-53 71 0
-53 70 0
-53 69 0
-53 68 0
-53 67 0
-53 66 0
-53 65 0
-53 64 0
-53 63 0
-53 62 0
-53 61 0
-53 60 0
-53 59 0
-53 58 0
-53 57 0
-53 56 0
-53 55 0
-53 54 0
-52 703 702 701 700 699 698 697 696 695 694 693 692 691 690 689 688 687 686 685 684 683 682 681 680 679 678 677 676 675 674 673 672 671 670 669 668 667 666 665 664 663 662 661 660 659 658 657 656 655 654 653 652 651 650 649 648 647 646 645 644 643 642 641 640 639 638 637 636 635 634 633 632 631 630 629 628 627 626 625 624 623 622 621 620 619 618 617 616 615 614 613 612 611 610 609 608 607 606 605 604 603 602 601 600 599 598 597 596 595 594 593 592 591 590 589 588 587 586 585 584 583 582 581 580 579 578 577 576 575 574 573 572 571 570 569 568 567 566 565 564 563 562 561 560 559 558 557 556 555 554 553 552 551 550 549 548 547 546 545 544 543 542 541 540 539 538 537 536 535 534 533 532 531 530 529 528 527 526 525 524 523 522 521 520 519 518 517 516 515 514 513 512 511 510 509 508 507 506 505 504 503 502 501 500 499 498 497 496 495 494 493 492 491 490 489 488 487 486 485 484 483 482 481 480 479 478 477 476 475 474 473 472 471 470 469 468 467 466 465 464 463 462 461 460 459 458 457 456 455 454 453 452 451 450 449 448 447 446 445 444 443 442 441 440 439 438 437 436 435 434 433 432 431 430 429 428 427 426 425 424 423 422 421 420 419 418 417 416 415 414 413 412 411 410 409 408 407 406 405 404 403 402 401 400 399 398 397 396 395 394 393 392 391 390 389 388 387 386 385 384 383 382 381 380 379 53 0
-51 779 0
-51 778 0
-51 777 0
-51 776 0
-51 775 0
-51 774 0
-51 773 0
-51 772 0
-51 771 0
-51 770 0
-51 769 0
-51 768 0
-51 767 0
-51 766 0
-51 765 0
-51 764 0
-51 763 0
-51 762 0
-51 761 0
-51 760 0
-51 759 0
-51 758 0
-51 757 0
-51 756 0
-51 755 0
-51 704 0
-51 52 0
51 -14 -20 0

